qbf_easy_train/easy_5936_SAT.qdimacs
p cnf 19 44
a 2 13 15 0
e 1 3 4 5 6 7 8 9 10 11 12 14 16 17 18 19 0
1 -2 -3 0
-1 2 -3 0
1 2 3 0
-1 -2 3 0
4 5 -6 0
-4 -5 -6 0
4 -5 6 0
-4 5 6 0
6 7 -8 0
-6 -7 -8 0
6 -7 8 0
-6 7 8 0
10 9 0
10 1 0
-9 -1 -10 0
-8 -10 -11 0
8 10 -11 0
-8 10 11 0
8 -10 11 0
-12 6 -13 0
12 -6 -13 0
-12 -6 13 0
12 6 13 0
14 -11 0
14 -13 0
11 13 -14 0
-16 -15 0
-16 -12 0
15 12 16 0
17 -6 0
17 16 0
6 -16 -17 0
-14 17 -18 0
14 -17 -18 0
-14 -17 18 0
14 17 18 0
19 -3 0
19 18 0
3 -18 -19 0
-3 15 10 -1 -18 11 0
-2 3 -5 8 14 -19 16 0
-6 4 5 1 15 0
-3 -9 19 2 -4 6 0
19 0
