sat_easy_train/easy_5936_SAT.dimacs
p cnf 120 394
5 3 0
5 -4 0
-3 4 -5 0
-2 -5 -6 0
2 5 -6 0
-2 5 6 0
2 -5 6 0
7 1 0
7 6 0
-1 -6 -7 0
7 8 -9 0
-7 -8 -9 0
7 -8 9 0
-7 8 9 0
11 -9 0
11 -10 0
9 10 -11 0
13 2 0
13 12 0
-2 -12 -13 0
13 -14 -15 0
-13 14 -15 0
13 14 15 0
-13 -14 15 0
-17 8 0
-17 -16 0
-8 16 17 0
8 17 -18 0
-8 -17 -18 0
8 -17 18 0
-8 17 18 0
19 1 0
19 -18 0
-1 18 -19 0
20 15 0
20 -19 0
-15 19 -20 0
21 -11 0
21 -20 0
11 20 -21 0
22 3 -23 0
-22 -3 -23 0
22 -3 23 0
-22 3 23 0
-23 3 -24 0
23 -3 -24 0
-23 -3 24 0
23 3 24 0
-25 12 -26 0
25 -12 -26 0
-25 -12 26 0
25 12 26 0
-26 27 0
26 27 0
29 -27 0
29 28 0
27 -28 -29 0
-24 29 -30 0
24 -29 -30 0
-24 -29 30 0
24 29 30 0
32 30 0
32 -31 0
-30 31 -32 0
3 18 -33 0
-3 -18 -33 0
3 -18 33 0
-3 18 33 0
5 -22 -34 0
-5 22 -34 0
5 22 34 0
-5 -22 34 0
10 28 -35 0
-10 -28 -35 0
10 -28 35 0
-10 28 35 0
36 -35 0
36 12 0
35 -12 -36 0
37 36 0
37 17 0
-36 -17 -37 0
34 37 -38 0
-34 -37 -38 0
34 -37 38 0
-34 37 38 0
-39 -12 0
-39 -38 0
12 38 39 0
-40 24 0
-40 -34 0
-24 34 40 0
41 39 0
41 40 0
-39 -40 -41 0
-42 -33 0
-42 41 0
33 -41 42 0
-43 32 0
-43 42 0
-32 -42 43 0
-45 -35 0
-45 -38 0
35 38 45 0
46 44 0
46 -45 0
-44 45 -46 0
-47 35 0
-47 44 0
-35 -44 47 0
8 22 -48 0
-8 -22 -48 0
8 -22 48 0
-8 22 48 0
49 -47 0
49 48 0
47 -48 -49 0
50 -46 0
50 49 0
46 -49 -50 0
-26 8 -51 0
26 -8 -51 0
-26 -8 51 0
26 8 51 0
-52 23 0
-52 -22 0
-23 22 52 0
-53 -51 0
-53 -52 0
51 52 53 0
-55 -18 0
-55 54 0
18 -54 55 0
-56 53 0
-56 55 0
-53 -55 56 0
57 -50 0
57 -56 0
50 56 -57 0
43 57 -58 0
-43 -57 -58 0
43 -57 58 0
-43 57 58 0
59 -21 0
59 -58 0
21 58 -59 0
-60 49 0
-60 -31 0
-49 31 60 0
-61 -60 0
-61 49 0
60 -49 61 0
8 48 -62 0
-8 -48 -62 0
8 -48 62 0
-8 48 62 0
-63 -61 0
-63 62 0
61 -62 63 0
-64 -45 0
-64 28 0
45 -28 64 0
65 63 0
65 64 0
-63 -64 -65 0
-66 -55 0
-66 -47 0
55 47 66 0
-67 2 0
-67 -66 0
-2 66 67 0
68 67 0
68 7 0
-67 -7 -68 0
-69 -60 0
-69 -28 0
60 28 69 0
70 -68 0
70 69 0
68 -69 -70 0
-71 6 0
-71 -5 0
-6 5 71 0
-70 71 -72 0
70 -71 -72 0
-70 -71 72 0
70 71 72 0
73 -29 0
73 -26 0
29 26 -73 0
74 -18 0
74 -49 0
18 49 -74 0
-75 -48 0
-75 -74 0
48 74 75 0
-51 75 -76 0
51 -75 -76 0
-51 -75 76 0
51 75 76 0
73 -76 -77 0
-73 76 -77 0
73 76 77 0
-73 -76 77 0
78 -72 0
78 -77 0
72 77 -78 0
-65 -78 -79 0
65 78 -79 0
-65 78 79 0
65 -78 79 0
80 59 0
80 -79 0
-59 79 -80 0
10 17 -81 0
-10 -17 -81 0
10 -17 81 0
-10 17 81 0
-29 81 -82 0
29 -81 -82 0
-29 -81 82 0
29 81 82 0
83 -14 0
83 2 0
14 -2 -83 0
83 -12 -84 0
-83 12 -84 0
83 12 84 0
-83 -12 84 0
85 45 0
85 84 0
-45 -84 -85 0
86 -82 0
86 85 0
82 -85 -86 0
87 62 0
87 -27 0
-62 27 -87 0
-87 38 -88 0
87 -38 -88 0
-87 -38 88 0
87 38 88 0
-89 -86 0
-89 88 0
86 -88 89 0
90 62 0
90 -4 0
-62 4 -90 0
-91 -60 0
-91 2 0
60 -2 91 0
-92 90 0
-92 -91 0
-90 91 92 0
-93 74 0
-93 -27 0
-74 27 93 0
-94 -92 0
-94 -93 0
92 93 94 0
-95 -89 0
-95 -94 0
89 94 95 0
96 -22 -97 0
-96 22 -97 0
96 22 97 0
-96 -22 97 0
-98 -1 0
-98 -7 0
1 7 98 0
-99 97 0
-99 -98 0
-97 98 99 0
100 81 0
100 49 0
-81 -49 -100 0
101 83 0
101 -1 0
-83 1 -101 0
-31 101 -102 0
31 -101 -102 0
-31 -101 102 0
31 101 102 0
-103 -100 0
-103 102 0
100 -102 103 0
-104 -99 0
-104 -103 0
99 103 104 0
14 34 -105 0
-14 -34 -105 0
14 -34 105 0
-14 34 105 0
13 -27 -106 0
-13 27 -106 0
13 27 106 0
-13 -27 106 0
-106 28 -107 0
106 -28 -107 0
-106 -28 107 0
106 28 107 0
-108 107 0
-108 -25 0
-107 25 108 0
-109 -18 0
-109 24 0
18 -24 109 0
109 38 -110 0
-109 -38 -110 0
109 -38 110 0
-109 38 110 0
111 108 0
111 -110 0
-108 110 -111 0
-105 111 -112 0
105 -111 -112 0
-105 -111 112 0
105 111 112 0
113 48 0
113 -9 0
-48 9 -113 0
114 -29 0
114 113 0
29 -113 -114 0
-115 16 0
-115 -14 0
-16 14 115 0
-116 -114 0
-116 115 0
114 -115 116 0
117 112 0
117 116 0
-112 -116 -117 0
118 104 0
118 -117 0
-104 117 -118 0
-119 -95 0
-119 -118 0
95 118 119 0
120 80 0
120 119 0
-80 -119 -120 0
-55 -32 36 0
-55 -17 -37 71 114 0
5 -94 0
15 -41 118 -66 0
69 84 32 59 0
111 96 0
57 -108 -111 0
-16 86 80 88 108 0
70 2 -106 7 29 77 0
99 120 0
-62 2 101 0
5 -55 101 102 -28 66 0
27 -55 66 0
-73 93 56 9 -24 -80 0
-85 -93 -50 32 0
-3 -23 29 0
-28 -56 0
-23 -67 -44 -79 -78 -69 0
-95 -75 0
-39 59 0
64 55 -82 -57 75 0
63 -105 -77 -44 0
100 -9 -2 -35 0
106 -88 0
43 10 -31 72 102 68 0
90 4 99 110 43 0
8 -116 0
-29 105 0
-3 32 20 -76 -92 0
-105 101 114 0
29 -71 112 0
117 -107 0
26 107 -63 -2 60 0
14 5 46 -98 -78 3 0
119 -65 40 -35 0
113 -64 -44 0
-16 85 14 -42 -94 0
-46 25 0
-100 91 -51 32 -77 52 0
10 89 -35 17 20 -59 0
82 6 -57 0
-109 -80 0
-73 111 41 47 1 -11 0
-82 21 -99 -15 -120 -2 0
90 -29 -50 -39 32 0
-94 50 -33 0
18 80 9 -40 5 112 0
-84 55 89 47 101 0
-101 -72 51 104 0
-28 -19 55 -118 64 0
13 25 30 -86 0
120 0
